c Generated by SAT Solver
p cnf 2003 131
101 102 103 0
201 202 203 0
301 302 303 0
401 402 403 0
501 502 503 0
601 602 603 0
701 702 703 0
801 802 803 0
901 902 903 0
1001 1002 1003 0
1101 1102 1103 0
1201 1202 1203 0
1301 1302 1303 0
1401 1402 1403 0
1501 1502 1503 0
1601 1602 1603 0
1701 1702 1703 0
1801 1802 1803 0
1901 1902 1903 0
2001 2002 2003 0
-101 -102 0
-101 -103 0
-102 -103 0
-201 -202 0
-201 -203 0
-202 -203 0
-301 -302 0
-301 -303 0
-302 -303 0
-401 -402 0
-401 -403 0
-402 -403 0
-501 -502 0
-501 -503 0
-502 -503 0
-601 -602 0
-601 -603 0
-602 -603 0
-701 -702 0
-701 -703 0
-702 -703 0
-801 -802 0
-801 -803 0
-802 -803 0
-901 -902 0
-901 -903 0
-902 -903 0
-1001 -1002 0
-1001 -1003 0
-1002 -1003 0
-1101 -1102 0
-1101 -1103 0
-1102 -1103 0
-1201 -1202 0
-1201 -1203 0
-1202 -1203 0
-1301 -1302 0
-1301 -1303 0
-1302 -1303 0
-1401 -1402 0
-1401 -1403 0
-1402 -1403 0
-1501 -1502 0
-1501 -1503 0
-1502 -1503 0
-1601 -1602 0
-1601 -1603 0
-1602 -1603 0
-1701 -1702 0
-1701 -1703 0
-1702 -1703 0
-1801 -1802 0
-1801 -1803 0
-1802 -1803 0
-1901 -1902 0
-1901 -1903 0
-1902 -1903 0
-2001 -2002 0
-2001 -2003 0
-2002 -2003 0
-101 -1001 0
-102 -1002 0
-103 -1003 0
-101 -1901 0
-102 -1902 0
-103 -1903 0
-201 -1801 0
-202 -1802 0
-203 -1803 0
-201 -1901 0
-202 -1902 0
-203 -1903 0
-301 -801 0
-302 -802 0
-303 -803 0
-301 -1201 0
-302 -1202 0
-303 -1203 0
-301 -1601 0
-302 -1602 0
-303 -1603 0
-301 -1701 0
-302 -1702 0
-303 -1703 0
-401 -801 0
-402 -802 0
-403 -803 0
-501 -1701 0
-502 -1702 0
-503 -1703 0
-601 -901 0
-602 -902 0
-603 -903 0
-801 -1001 0
-802 -1002 0
-803 -1003 0
-901 -1201 0
-902 -1202 0
-903 -1203 0
-1201 -1701 0
-1202 -1702 0
-1203 -1703 0
-1201 -2001 0
-1202 -2002 0
-1203 -2003 0
-1501 -2001 0
-1502 -2002 0
-1503 -2003 0
-1601 -1701 0
-1602 -1702 0
-1603 -1703 0
